(set-info :smt-lib-version 2.6)
(set-logic QF_NIA)
(set-info :source |
Generated by: Cristina Borralleras, Daniel Larraz, Albert Oliveras, Enric Rodriguez-Carbonell, Albert Rubio
Generated on: 2017-04-27
Generator: VeryMax
Application: Termination proving
Target solver: barcelogic
|)
(set-info :license "https://creativecommons.org/licenses/by/4.0/")
(set-info :category "industrial")
(set-info :status unsat)
(declare-fun Nl2main_life1 () Int)
(declare-fun Nl2main_death1 () Int)
(declare-fun lam0n0 () Int)
(declare-fun lam0n1 () Int)
(declare-fun lam0n2 () Int)
(declare-fun lam0n3 () Int)
(declare-fun Nl2CT1 () Int)
(declare-fun lam1n0 () Int)
(declare-fun lam1n1 () Int)
(declare-fun lam1n2 () Int)
(declare-fun lam1n3 () Int)
(declare-fun lam2n0 () Int)
(declare-fun lam2n1 () Int)
(declare-fun pBounded () Bool)
(declare-fun lam6n0 () Int)
(declare-fun lam6n1 () Int)
(declare-fun lam6n2 () Int)
(declare-fun lam6n3 () Int)
(declare-fun RFN1_CT () Int)
(declare-fun RFN1_main_life () Int)
(declare-fun RFN1_main_death () Int)
(declare-fun lam5n0 () Int)
(declare-fun lam5n1 () Int)
(declare-fun lam5n2 () Int)
(declare-fun lam5n3 () Int)
(declare-fun lam4n0 () Int)
(declare-fun lam4n1 () Int)
(declare-fun lam4n2 () Int)
(declare-fun lam4n3 () Int)
(declare-fun lam3n0 () Int)
(declare-fun lam3n1 () Int)
(declare-fun lam3n2 () Int)
(declare-fun lam3n3 () Int)
(assert ( and ( <= ( - 2 ) Nl2main_life1 ) ( <= Nl2main_life1 2 ) ( <= ( - 2 ) Nl2main_death1 ) ( <= Nl2main_death1 2 ) ))
(assert ( or ( and ( >= lam0n0 0 ) ( >= lam0n1 0 ) ( >= lam0n2 0 ) ( >= lam0n3 0 ) ( > ( + ( * 2 lam0n0 ) ( * 1 lam0n1 ) ( * 3 lam0n2 ) ( * Nl2CT1 lam0n3 ) ( - 1 ) ) 0 ) ( = ( + ( * ( - 1 ) lam0n0 ) ( * 1 lam0n1 ) ( * Nl2main_life1 lam0n3 ) ) 0 ) ( = ( + ( * ( - 1 ) lam0n1 ) ( * ( - 1 ) lam0n2 ) ( * Nl2main_death1 lam0n3 ) ) 0 ) ) ( and ( >= lam1n0 0 ) ( >= lam1n1 0 ) ( >= lam1n2 0 ) ( >= lam1n3 0 ) ( > ( + ( * 2 lam1n0 ) ( * 1 lam1n1 ) ( * 3 lam1n2 ) ( * Nl2CT1 lam1n3 ) ( - 1 ( + ( + Nl2CT1 ( * Nl2main_life1 2 ) ) ( * Nl2main_death1 1 ) ) ) ) 0 ) ( = ( + ( * ( - 1 ) lam1n0 ) ( * 1 lam1n1 ) ( * Nl2main_life1 lam1n3 ) ( - ( + 0 ( * Nl2main_death1 1 ) ) ) ) 0 ) ( = ( + ( * ( - 1 ) lam1n1 ) ( * ( - 1 ) lam1n2 ) ( * Nl2main_death1 lam1n3 ) ) 0 ) ) ))
(assert ( and ( > ( + ( * ( - 13 ) lam2n0 ) ( * ( - 17 ) lam2n1 ) ( - 1 Nl2CT1 ) ) 0 ) ( = ( + ( * 1 lam2n0 ) ( - ( + 0 Nl2main_life1 ) ) ) 0 ) ( = ( + ( * 1 lam2n1 ) ( - ( + 0 Nl2main_death1 ) ) ) 0 ) ))
(assert ( or ( not pBounded ) true ))
(assert ( or ( and ( and ( >= lam6n0 0 ) ( >= lam6n1 0 ) ( >= lam6n2 0 ) ( >= lam6n3 0 ) ( > ( + ( * 2 lam6n0 ) ( * 1 lam6n1 ) ( * 3 lam6n2 ) ( * Nl2CT1 lam6n3 ) ( - 1 ( - ( + ( + RFN1_CT ( * RFN1_main_life 2 ) ) ( * RFN1_main_death 1 ) ) RFN1_CT ) ) ) 0 ) ( = ( + ( * ( - 1 ) lam6n0 ) ( * 1 lam6n1 ) ( * Nl2main_life1 lam6n3 ) ( - ( - ( + 0 ( * RFN1_main_death 1 ) ) RFN1_main_life ) ) ) 0 ) ( = ( + ( * ( - 1 ) lam6n1 ) ( * ( - 1 ) lam6n2 ) ( * Nl2main_death1 lam6n3 ) ( - ( - RFN1_main_death ) ) ) 0 ) ) ( and ( and ( >= lam5n0 0 ) ( >= lam5n1 0 ) ( >= lam5n2 0 ) ( >= lam5n3 0 ) ( > ( + ( * 2 lam5n0 ) ( * 1 lam5n1 ) ( * 3 lam5n2 ) ( * Nl2CT1 lam5n3 ) ( - 1 ( + ( - ( + ( + RFN1_CT ( * RFN1_main_life 2 ) ) ( * RFN1_main_death 1 ) ) RFN1_CT ) 1 ) ) ) 0 ) ( = ( + ( * ( - 1 ) lam5n0 ) ( * 1 lam5n1 ) ( * Nl2main_life1 lam5n3 ) ( - ( - ( + 0 ( * RFN1_main_death 1 ) ) RFN1_main_life ) ) ) 0 ) ( = ( + ( * ( - 1 ) lam5n1 ) ( * ( - 1 ) lam5n2 ) ( * Nl2main_death1 lam5n3 ) ( - ( - RFN1_main_death ) ) ) 0 ) ) ( or ( and ( >= lam4n0 0 ) ( >= lam4n1 0 ) ( >= lam4n2 0 ) ( >= lam4n3 0 ) ( > ( + ( * 2 lam4n0 ) ( * 1 lam4n1 ) ( * 3 lam4n2 ) ( * Nl2CT1 lam4n3 ) ( - 1 ( - RFN1_CT ) ) ) 0 ) ( = ( + ( * ( - 1 ) lam4n0 ) ( * 1 lam4n1 ) ( * Nl2main_life1 lam4n3 ) ( - ( - RFN1_main_life ) ) ) 0 ) ( = ( + ( * ( - 1 ) lam4n1 ) ( * ( - 1 ) lam4n2 ) ( * Nl2main_death1 lam4n3 ) ( - ( - RFN1_main_death ) ) ) 0 ) ) pBounded ) ) ) ( and ( >= lam3n0 0 ) ( >= lam3n1 0 ) ( >= lam3n2 0 ) ( >= lam3n3 0 ) ( > ( + ( * 2 lam3n0 ) ( * 1 lam3n1 ) ( * 3 lam3n2 ) ( * Nl2CT1 lam3n3 ) ( - 1 ) ) 0 ) ( = ( + ( * ( - 1 ) lam3n0 ) ( * 1 lam3n1 ) ( * Nl2main_life1 lam3n3 ) ) 0 ) ( = ( + ( * ( - 1 ) lam3n1 ) ( * ( - 1 ) lam3n2 ) ( * Nl2main_death1 lam3n3 ) ) 0 ) ) ))
(check-sat)
(exit)
